p idrup
i 47 0
i 33 0
i 44 0
i 17 0
i 46 0
i 41 0
i -91 0
i -14 0
i -42 0
i -19 0
i 95 0
i -28 0
i -1 0
i -27 -134 0
i 36 0
i 16 0
i -12 0
i -13 0
i -29 0
i 30 0
i 103 0
i -82 0
i 93 0
i 18 0
i -15 0
i 20 0
i -29 0
i -91 0
i 32 0
i -11 0
i -1 0
i 20 0
i 35 0
i 10 0
i -13 0
i -2 0
i 31 -5 0
i 22 0
i -9 0
i 23 0
i -37 0
i -24 0
i 34 31 0
i 26 0
i 33 0
i -79 0
i 39 0
i 38 0
i -4 -134 0
i -34 -34 0
i -31 134 0
i 93 0
i -84 -84 0
i 3 0
i -37 0
i -6 0
i 35 0
i 138 0
i 40 0
i -24 0
i 138 0
i -21 0
i -6 0
i 5 84 0
i 17 0
i 124 0
i -7 0
i -91 0
i 27 4 0
i 26 0
i -24 0
i -42 0
q -148 -76 89 -25 -8 -142 -123 -119 -96 141 121 -43 115 -45 0
s UNSATISFIABLE
u 0
